c User generated cnf file
p cnf 12 67
-4 1 11 0 
5 -10 8 0 
-1 7 3 0 
12 7 -11 0 
3 3 -12 0 
10 -11 1 0 
10 12 -5 0 
9 -10 5 0 
-10 9 1 0 
-6 8 3 0 
-9 12 2 0 
4 -12 8 0 
8 -1 9 0 
3 8 -4 0 
-7 10 4 0 
10 -10 6 0 
7 12 -4 0 
5 6 -3 0 
2 -7 10 0 
7 1 -10 0 
-10 12 7 0 
8 5 -11 0 
9 -6 11 0 
-1 4 3 0 
3 -3 8 0 
1 10 -7 0 
-1 12 1 0 
6 11 -8 0 
5 -5 8 0 
1 9 -10 0 
6 2 -12 0 
5 11 -10 0 
2 -6 5 0 
5 12 -7 0 
1 1 -3 0 
-5 6 12 0 
-3 9 3 0 
1 1 -3 0 
-1 6 10 0 
-4 4 9 0 
7 -11 1 0 
11 -3 10 0 
5 3 -5 0 
-8 2 11 0 
6 3 -12 0 
7 -6 1 0 
-9 6 7 0 
2 6 -12 0 
-8 1 8 0 
5 6 -8 0 
7 -12 6 0 
-6 2 8 0 
-6 12 4 0 
-4 8 10 0 
-12 8 9 0 
-3 2 9 0 
2 9 -5 0 
10 -1 5 0 
8 -9 11 0 
4 -7 7 0 
6 -7 8 0 
1 -9 10 0 
-6 2 1 0 
11 12 -1 0 
10 -6 6 0 
6 -7 11 0 
11 2 -1 0 
